NAME: tsp45_18
COMMENT: 45-tsp problem (Padberg/Rinaldi)
TYPE: TSP
DIMENSION: 45
EDGE_WEIGHT_TYPE : EUC_2D
NODE_COORD_SECTION
1 27 25
2 28 25
3 35 6
4 6 23
5 5 12
6 19 1
7 7 7
8 38 12
9 27 2
10 25 34
11 3 13
12 14 15
13 7 15
14 18 22
15 32 2
16 37 34
17 38 8
18 25 16
19 17 11
20 13 9
21 37 12
22 1 0
23 23 28
24 22 7
25 35 12
26 19 10
27 8 24
28 6 19
29 23 10
30 0 4
31 2 24
32 3 33
33 5 5
34 31 38
35 9 12
36 24 4
37 22 16
38 9 6
39 36 18
40 23 37
41 36 40
42 6 1
43 4 34
44 18 29
45 18 35
